param set_len = 26;
param target := 222346;
set values := 9703, 21303, 6431, 6585, 10170, 6851, 30350, 7937, 28584, 19961, 27650, 26636, 7942, 27379, 5417, 32016, 16441, 20103, 25718, 2084, 12118, 5012, 29069, 23727, 29592, 20422, ;
